100
2 0
18 0
3 1
7 4
9 1
34 4
29 3
30 4
22 0
19 1
36 3
10 3
19 2
5 3
11 4
1 0
28 4
27 4
23 4
7 3
29 0
23 0
21 3
1 4
3 2
27 3
41 2
11 3
37 0
21 2
0 0
33 0
16 4
16 2
9 2
31 4
42 0
13 3
20 0
32 4
32 2
23 1
11 0
29 4
7 0
29 1
36 4
24 4
9 4
41 1
15 1
38 0
1 3
40 4
37 4
30 3
19 3
9 0
4 2
6 2
42 3
31 3
4 4
34 3
34 0
21 0
41 4
30 0
36 0
20 2
21 4
42 4
4 0
6 4
20 1
27 0
2 4
3 0
43 1
32 3
22 1
16 1
24 0
34 1
5 2
12 1
14 1
14 4
10 0
33 3
12 4
6 0
25 4
28 0
39 4
15 3
40 2
12 0
22 4
32 1

